num_features = 35;
num_usage_limits = 1;
num_plans = 3;
num_addons = 0;

features = ["versionHistory","figmaEditor","advancedDrawingTools","styles","plugins","fileStorage","crossPlatform","sketchImport","interactivePrototypes","overlays","transitions","advancedAnimations","developerHandoff","pdfPngJpgSvgExport","multiplayer","shareableLinks","onCanvasCommenting","observationMode","privateProjects","teams","components","teamLibraries","organizationWideDesignSystems","sharedFonts","restApis","thirdPartyIntegrations","liveEmbeds","privatePlugins","pluginManagement","centralizedAdministration","domainCapture","linkAccessControls","fullContentOwnership","singleSignOn","activityLogs"];
usage_limits = ["versionHistoryDepth"];
plans = ["STARTER","PROFESSIONAL","ORGANIZATION"];
addons = [];

plans_prices = [0,12,45];
addons_prices = [];

linked_features = array2d(USAGE_LIMITS, FEATURES, [
    % versionHistoryDepth
    1,0,0,0,0,0,0,0,0,0,0,0,0,0,0,0,0,0,0,0,0,0,0,0,0,0,0,0,0,0,0,0,0,0,0
]);

plans_features = array2d(PLANS, FEATURES, [
    % STARTER
    1,1,1,1,1,1,1,1,1,1,1,1,1,1,1,1,1,1,0,0,1,0,0,0,1,1,1,0,0,0,0,0,0,1,0,
    % PROFESSIONAL
    1,1,1,1,1,1,1,1,1,1,1,1,1,1,1,1,1,1,1,0,1,1,0,0,1,1,1,0,0,0,0,0,0,1,0,
    % ORGANIZATION
    1,1,1,1,1,1,1,1,1,1,1,1,1,1,1,1,1,1,1,1,1,1,1,1,1,1,1,1,1,1,1,1,1,1,1
]);
plans_usage_limits = array2d(PLANS, USAGE_LIMITS, [
    % STARTER
    30,
    % PROFESSIONAL
    1000000000,
    % ORGANIZATION
    1000000000
]);

addons_features = array2d(ADDONS, FEATURES, [
]);
addons_usage_limits = array2d(ADDONS, USAGE_LIMITS, [
]);
addons_usage_limits_extensions = array2d(ADDONS, USAGE_LIMITS, [
]);
addons_available_for = array2d(ADDONS, PLANS, [
]);
addons_depends_on = array2d(ADDONS, ADDONS, [
]);
